14° run output:
{
    "Function": "euclidA500.tsp",
    "Problem dimension": [
        316,
        347,
        6,
        479,
        419,
        153,
        393,
        143,
        459,
        425,
        396,
        43,
        118,
        335,
        468,
        102,
        75,
        78,
        230,
        141,
        295,
        0,
        257,
        234,
        377,
        139,
        440,
        199,
        3,
        201,
        183,
        136,
        52,
        416,
        293,
        303,
        127,
        244,
        334,
        368,
        352,
        437,
        388,
        365,
        1,
        253,
        232,
        222,
        249,
        213,
        270,
        447,
        490,
        92,
        193,
        70,
        71,
        464,
        414,
        296,
        117,
        192,
        286,
        170,
        290,
        379,
        487,
        195,
        221,
        484,
        129,
        8,
        497,
        274,
        240,
        14,
        44,
        140,
        457,
        358,
        451,
        65,
        231,
        121,
        40,
        473,
        287,
        34,
        269,
        304,
        215,
        460,
        384,
        363,
        97,
        404,
        401,
        245,
        317,
        410,
        256,
        444,
        387,
        341,
        263,
        73,
        198,
        325,
        441,
        412,
        339,
        275,
        100,
        80,
        471,
        190,
        119,
        472,
        66,
        16,
        402,
        499,
        493,
        474,
        409,
        59,
        2,
        10,
        480,
        300,
        318,
        128,
        482,
        413,
        13,
        173,
        449,
        19,
        400,
        329,
        448,
        466,
        470,
        178,
        486,
        239,
        84,
        148,
        461,
        344,
        350,
        72,
        424,
        112,
        465,
        309,
        163,
        133,
        417,
        422,
        69,
        48,
        267,
        46,
        375,
        175,
        45,
        74,
        203,
        159,
        246,
        235,
        174,
        138,
        495,
        439,
        37,
        61,
        217,
        47,
        421,
        443,
        64,
        306,
        385,
        332,
        83,
        42,
        147,
        299,
        442,
        342,
        310,
        361,
        378,
        418,
        41,
        392,
        238,
        259,
        204,
        364,
        453,
        125,
        208,
        229,
        343,
        108,
        158,
        176,
        445,
        264,
        298,
        252,
        179,
        60,
        469,
        172,
        137,
        29,
        76,
        271,
        98,
        491,
        294,
        242,
        336,
        188,
        302,
        90,
        337,
        89,
        434,
        307,
        289,
        182,
        95,
        373,
        285,
        346,
        77,
        403,
        243,
        62,
        292,
        494,
        255,
        260,
        111,
        423,
        381,
        35,
        184,
        197,
        233,
        321,
        51,
        145,
        340,
        126,
        455,
        33,
        435,
        266,
        144,
        150,
        282,
        20,
        406,
        24,
        116,
        36,
        276,
        382,
        432,
        389,
        214,
        168,
        224,
        82,
        106,
        49,
        160,
        485,
        241,
        436,
        301,
        120,
        165,
        146,
        297,
        351,
        481,
        331,
        251,
        323,
        367,
        428,
        57,
        394,
        279,
        131,
        371,
        96,
        477,
        134,
        320,
        55,
        348,
        376,
        93,
        254,
        130,
        429,
        237,
        462,
        68,
        23,
        225,
        105,
        38,
        17,
        420,
        32,
        456,
        330,
        319,
        370,
        483,
        291,
        261,
        185,
        161,
        123,
        27,
        374,
        81,
        476,
        438,
        189,
        154,
        31,
        18,
        383,
        360,
        322,
        50,
        151,
        355,
        104,
        26,
        399,
        283,
        194,
        167,
        386,
        228,
        56,
        79,
        248,
        496,
        202,
        446,
        218,
        87,
        124,
        431,
        180,
        135,
        277,
        395,
        326,
        327,
        39,
        216,
        207,
        411,
        196,
        354,
        314,
        278,
        407,
        187,
        398,
        219,
        467,
        186,
        450,
        454,
        390,
        452,
        273,
        211,
        338,
        315,
        210,
        353,
        226,
        223,
        94,
        426,
        227,
        311,
        258,
        91,
        191,
        405,
        54,
        5,
        28,
        268,
        324,
        122,
        308,
        489,
        63,
        362,
        349,
        58,
        177,
        212,
        408,
        250,
        15,
        67,
        328,
        166,
        359,
        86,
        171,
        265,
        345,
        113,
        156,
        200,
        272,
        9,
        4,
        205,
        427,
        380,
        85,
        107,
        164,
        280,
        53,
        357,
        475,
        313,
        312,
        21,
        463,
        110,
        356,
        181,
        369,
        333,
        478,
        22,
        430,
        11,
        288,
        103,
        157,
        220,
        142,
        433,
        397,
        262,
        152,
        7,
        372,
        247,
        284,
        115,
        162,
        498,
        101,
        458,
        305,
        415,
        149,
        169,
        88,
        109,
        155,
        391,
        99,
        366,
        114,
        209,
        236,
        25,
        492,
        206,
        12,
        30,
        132,
        488,
        281
    ],
    "Global Optimum": 0,
    "Algorithm": "Genetic algorithm",
    "Parameters": {
        "population": 30,
        "offspring": 30,
        "mutation probability": 0.002,
        "crossover probability": 0.9
    },
    "Fitness": 547819,
    "Solution": [
        316,
        347,
        6,
        479,
        419,
        153,
        393,
        143,
        459,
        425,
        396,
        43,
        118,
        335,
        468,
        102,
        75,
        78,
        230,
        141,
        295,
        0,
        257,
        234,
        377,
        139,
        440,
        199,
        3,
        201,
        183,
        136,
        52,
        416,
        293,
        303,
        127,
        244,
        334,
        368,
        352,
        437,
        388,
        365,
        1,
        253,
        232,
        222,
        249,
        213,
        270,
        447,
        490,
        92,
        193,
        70,
        71,
        464,
        414,
        296,
        117,
        192,
        286,
        170,
        290,
        379,
        487,
        195,
        221,
        484,
        129,
        8,
        497,
        274,
        240,
        14,
        44,
        140,
        457,
        358,
        451,
        65,
        231,
        121,
        40,
        473,
        287,
        34,
        269,
        304,
        215,
        460,
        384,
        363,
        97,
        404,
        401,
        245,
        317,
        410,
        256,
        444,
        387,
        341,
        263,
        73,
        198,
        325,
        441,
        412,
        339,
        275,
        100,
        80,
        471,
        190,
        119,
        472,
        66,
        16,
        402,
        499,
        493,
        474,
        409,
        59,
        2,
        10,
        480,
        300,
        318,
        128,
        482,
        413,
        13,
        173,
        449,
        19,
        400,
        329,
        448,
        466,
        470,
        178,
        486,
        239,
        84,
        148,
        461,
        344,
        350,
        72,
        424,
        112,
        465,
        309,
        163,
        133,
        417,
        422,
        69,
        48,
        267,
        46,
        375,
        175,
        45,
        74,
        203,
        159,
        246,
        235,
        174,
        138,
        495,
        439,
        37,
        61,
        217,
        47,
        421,
        443,
        64,
        306,
        385,
        332,
        83,
        42,
        147,
        299,
        442,
        342,
        310,
        361,
        378,
        418,
        41,
        392,
        238,
        259,
        204,
        364,
        453,
        125,
        208,
        229,
        343,
        108,
        158,
        176,
        445,
        264,
        298,
        252,
        179,
        60,
        469,
        172,
        137,
        29,
        76,
        271,
        98,
        491,
        294,
        242,
        336,
        188,
        302,
        90,
        337,
        89,
        434,
        307,
        289,
        182,
        95,
        373,
        285,
        346,
        77,
        403,
        243,
        62,
        292,
        494,
        255,
        260,
        111,
        423,
        381,
        35,
        184,
        197,
        233,
        321,
        51,
        145,
        340,
        126,
        455,
        33,
        435,
        266,
        144,
        150,
        282,
        20,
        406,
        24,
        116,
        36,
        276,
        382,
        432,
        389,
        214,
        168,
        224,
        82,
        106,
        49,
        160,
        485,
        241,
        436,
        301,
        120,
        165,
        146,
        297,
        351,
        481,
        331,
        251,
        323,
        367,
        428,
        57,
        394,
        279,
        131,
        371,
        96,
        477,
        134,
        320,
        55,
        348,
        376,
        93,
        254,
        130,
        429,
        237,
        462,
        68,
        23,
        225,
        105,
        38,
        17,
        420,
        32,
        456,
        330,
        319,
        370,
        483,
        291,
        261,
        185,
        161,
        123,
        27,
        374,
        81,
        476,
        438,
        189,
        154,
        31,
        18,
        383,
        360,
        322,
        50,
        151,
        355,
        104,
        26,
        399,
        283,
        194,
        167,
        386,
        228,
        56,
        79,
        248,
        496,
        202,
        446,
        218,
        87,
        124,
        431,
        180,
        135,
        277,
        395,
        326,
        327,
        39,
        216,
        207,
        411,
        196,
        354,
        314,
        278,
        407,
        187,
        398,
        219,
        467,
        186,
        450,
        454,
        390,
        452,
        273,
        211,
        338,
        315,
        210,
        353,
        226,
        223,
        94,
        426,
        227,
        311,
        258,
        91,
        191,
        405,
        54,
        5,
        28,
        268,
        324,
        122,
        308,
        489,
        63,
        362,
        349,
        58,
        177,
        212,
        408,
        250,
        15,
        67,
        328,
        166,
        359,
        86,
        171,
        265,
        345,
        113,
        156,
        200,
        272,
        9,
        4,
        205,
        427,
        380,
        85,
        107,
        164,
        280,
        53,
        357,
        475,
        313,
        312,
        21,
        463,
        110,
        356,
        181,
        369,
        333,
        478,
        22,
        430,
        11,
        288,
        103,
        157,
        220,
        142,
        433,
        397,
        262,
        152,
        7,
        372,
        247,
        284,
        115,
        162,
        498,
        101,
        458,
        305,
        415,
        149,
        169,
        88,
        109,
        155,
        391,
        99,
        366,
        114,
        209,
        236,
        25,
        492,
        206,
        12,
        30,
        132,
        488,
        281
    ],
    "Nb of functions evaluations": 400020,
    "Computational time in seconds": 1798.1835489273071,
    "Stopping criterion in evaluations": 400000
}